# 3d Lennard-Jones melt

#initialise the crystal at high temperature 
#log    log.lammps           #define the output logfile
variable        x index 1
variable        y index 1
variable        z index 1

variable        xx equal 5*$x   # boxlx
variable        yy equal 5*$y   # boxly
variable        zz equal 5*$z	 # boxlz

units           lj
atom_style      atomic
dimension       3

lattice       fcc   1.2           #density input (N = Nc*(boxlx*boxly(boxlz)) Nc=4 for fcc toal N =500
region         box block 0 ${xx} 0 ${yy} 0 ${zz}
create_box      2 box
create_atoms    1 box

mass             1 1
mass             2 1


set   group all type/fraction 2 0.2013  107       #setting two types of particles for binary mixture, define fraction
group     solvent type 1

velocity      all create 8.00 87287 mom yes rot yes dist  gaussian  # 8.00 in the temperature

#potential input 
pair_style lj/cut 2.5   # potential type cutoff
pair_modify shift yes
pair_coeff 1 1 1.0 1.0 2.5  #AA
pair_coeff 1 2 1.5 0.8 2.0  #AB
pair_coeff 2 2 0.5 0.88 2.2 #BB

neighbor    0.3 bin
neigh_modify      delay 0 every 5 check no

fix         1 all nvt temp 8.00 8.00 0.1      #NVT simulation 8.00 is the temperature

#saving the data in log file 
thermo_style    custom step temp press pe ke etotal vol enthalpy        # For printing in log file 

thermo          10        # log file dump step
thermo_modify   flush yes

dump          2 all custom 10 pos.xyz id type xu yu zu  #dumping positions
dump_modify   2 sort 2

dump           3 all custom 10 vel.xyz id type vx vy vz #dumping velocities
dump_modify    3 sort 2

write_data      2_xyz_files.data

restart    1000 restart1.dat restart_8.00.dat      #binary file used for next simulation
timestep         0.001                    #timestep
run            1000                     #run length
#================================================

